p cnf 70 1350
-1 -11 0
-1 -12 0
-1 -13 0
-1 -14 0
-1 -15 0
-2 -11 0
-2 -12 0
-2 -13 0
-2 -14 0
-2 -15 0
-3 -11 0
-3 -12 0
-3 -13 0
-3 -14 0
-3 -15 0
-4 -11 0
-4 -12 0
-4 -13 0
-4 -14 0
-4 -15 0
-5 -11 0
-5 -12 0
-5 -13 0
-5 -14 0
-5 -15 0
-1 -16 0
-1 -17 0
-1 -18 0
-1 -19 0
-1 -20 0
-2 -16 0
-2 -17 0
-2 -18 0
-2 -19 0
-2 -20 0
-3 -16 0
-3 -17 0
-3 -18 0
-3 -19 0
-3 -20 0
-4 -16 0
-4 -17 0
-4 -18 0
-4 -19 0
-4 -20 0
-5 -16 0
-5 -17 0
-5 -18 0
-5 -19 0
-5 -20 0
-1 -21 0
-1 -22 0
-1 -23 0
-1 -24 0
-1 -25 0
-2 -21 0
-2 -22 0
-2 -23 0
-2 -24 0
-2 -25 0
-3 -21 0
-3 -22 0
-3 -23 0
-3 -24 0
-3 -25 0
-4 -21 0
-4 -22 0
-4 -23 0
-4 -24 0
-4 -25 0
-5 -21 0
-5 -22 0
-5 -23 0
-5 -24 0
-5 -25 0
-1 -36 0
-1 -37 0
-1 -38 0
-1 -39 0
-1 -40 0
-2 -36 0
-2 -37 0
-2 -38 0
-2 -39 0
-2 -40 0
-3 -36 0
-3 -37 0
-3 -38 0
-3 -39 0
-3 -40 0
-4 -36 0
-4 -37 0
-4 -38 0
-4 -39 0
-4 -40 0
-5 -36 0
-5 -37 0
-5 -38 0
-5 -39 0
-5 -40 0
-1 -46 0
-1 -47 0
-1 -48 0
-1 -49 0
-1 -50 0
-2 -46 0
-2 -47 0
-2 -48 0
-2 -49 0
-2 -50 0
-3 -46 0
-3 -47 0
-3 -48 0
-3 -49 0
-3 -50 0
-4 -46 0
-4 -47 0
-4 -48 0
-4 -49 0
-4 -50 0
-5 -46 0
-5 -47 0
-5 -48 0
-5 -49 0
-5 -50 0
-6 -21 0
-6 -22 0
-6 -23 0
-6 -24 0
-6 -25 0
-7 -21 0
-7 -22 0
-7 -23 0
-7 -24 0
-7 -25 0
-8 -21 0
-8 -22 0
-8 -23 0
-8 -24 0
-8 -25 0
-9 -21 0
-9 -22 0
-9 -23 0
-9 -24 0
-9 -25 0
-10 -21 0
-10 -22 0
-10 -23 0
-10 -24 0
-10 -25 0
-6 -51 0
-6 -52 0
-6 -53 0
-6 -54 0
-6 -55 0
-7 -51 0
-7 -52 0
-7 -53 0
-7 -54 0
-7 -55 0
-8 -51 0
-8 -52 0
-8 -53 0
-8 -54 0
-8 -55 0
-9 -51 0
-9 -52 0
-9 -53 0
-9 -54 0
-9 -55 0
-10 -51 0
-10 -52 0
-10 -53 0
-10 -54 0
-10 -55 0
-6 -61 0
-6 -62 0
-6 -63 0
-6 -64 0
-6 -65 0
-7 -61 0
-7 -62 0
-7 -63 0
-7 -64 0
-7 -65 0
-8 -61 0
-8 -62 0
-8 -63 0
-8 -64 0
-8 -65 0
-9 -61 0
-9 -62 0
-9 -63 0
-9 -64 0
-9 -65 0
-10 -61 0
-10 -62 0
-10 -63 0
-10 -64 0
-10 -65 0
-11 -21 0
-11 -22 0
-11 -23 0
-11 -24 0
-11 -25 0
-12 -21 0
-12 -22 0
-12 -23 0
-12 -24 0
-12 -25 0
-13 -21 0
-13 -22 0
-13 -23 0
-13 -24 0
-13 -25 0
-14 -21 0
-14 -22 0
-14 -23 0
-14 -24 0
-14 -25 0
-15 -21 0
-15 -22 0
-15 -23 0
-15 -24 0
-15 -25 0
-11 -36 0
-11 -37 0
-11 -38 0
-11 -39 0
-11 -40 0
-12 -36 0
-12 -37 0
-12 -38 0
-12 -39 0
-12 -40 0
-13 -36 0
-13 -37 0
-13 -38 0
-13 -39 0
-13 -40 0
-14 -36 0
-14 -37 0
-14 -38 0
-14 -39 0
-14 -40 0
-15 -36 0
-15 -37 0
-15 -38 0
-15 -39 0
-15 -40 0
-11 -56 0
-11 -57 0
-11 -58 0
-11 -59 0
-11 -60 0
-12 -56 0
-12 -57 0
-12 -58 0
-12 -59 0
-12 -60 0
-13 -56 0
-13 -57 0
-13 -58 0
-13 -59 0
-13 -60 0
-14 -56 0
-14 -57 0
-14 -58 0
-14 -59 0
-14 -60 0
-15 -56 0
-15 -57 0
-15 -58 0
-15 -59 0
-15 -60 0
-16 -26 0
-16 -27 0
-16 -28 0
-16 -29 0
-16 -30 0
-17 -26 0
-17 -27 0
-17 -28 0
-17 -29 0
-17 -30 0
-18 -26 0
-18 -27 0
-18 -28 0
-18 -29 0
-18 -30 0
-19 -26 0
-19 -27 0
-19 -28 0
-19 -29 0
-19 -30 0
-20 -26 0
-20 -27 0
-20 -28 0
-20 -29 0
-20 -30 0
-16 -46 0
-16 -47 0
-16 -48 0
-16 -49 0
-16 -50 0
-17 -46 0
-17 -47 0
-17 -48 0
-17 -49 0
-17 -50 0
-18 -46 0
-18 -47 0
-18 -48 0
-18 -49 0
-18 -50 0
-19 -46 0
-19 -47 0
-19 -48 0
-19 -49 0
-19 -50 0
-20 -46 0
-20 -47 0
-20 -48 0
-20 -49 0
-20 -50 0
-16 -56 0
-16 -57 0
-16 -58 0
-16 -59 0
-16 -60 0
-17 -56 0
-17 -57 0
-17 -58 0
-17 -59 0
-17 -60 0
-18 -56 0
-18 -57 0
-18 -58 0
-18 -59 0
-18 -60 0
-19 -56 0
-19 -57 0
-19 -58 0
-19 -59 0
-19 -60 0
-20 -56 0
-20 -57 0
-20 -58 0
-20 -59 0
-20 -60 0
-16 -61 0
-16 -62 0
-16 -63 0
-16 -64 0
-16 -65 0
-17 -61 0
-17 -62 0
-17 -63 0
-17 -64 0
-17 -65 0
-18 -61 0
-18 -62 0
-18 -63 0
-18 -64 0
-18 -65 0
-19 -61 0
-19 -62 0
-19 -63 0
-19 -64 0
-19 -65 0
-20 -61 0
-20 -62 0
-20 -63 0
-20 -64 0
-20 -65 0
-21 -51 0
-21 -52 0
-21 -53 0
-21 -54 0
-21 -55 0
-22 -51 0
-22 -52 0
-22 -53 0
-22 -54 0
-22 -55 0
-23 -51 0
-23 -52 0
-23 -53 0
-23 -54 0
-23 -55 0
-24 -51 0
-24 -52 0
-24 -53 0
-24 -54 0
-24 -55 0
-25 -51 0
-25 -52 0
-25 -53 0
-25 -54 0
-25 -55 0
-26 -41 0
-26 -42 0
-26 -43 0
-26 -44 0
-26 -45 0
-27 -41 0
-27 -42 0
-27 -43 0
-27 -44 0
-27 -45 0
-28 -41 0
-28 -42 0
-28 -43 0
-28 -44 0
-28 -45 0
-29 -41 0
-29 -42 0
-29 -43 0
-29 -44 0
-29 -45 0
-30 -41 0
-30 -42 0
-30 -43 0
-30 -44 0
-30 -45 0
-26 -51 0
-26 -52 0
-26 -53 0
-26 -54 0
-26 -55 0
-27 -51 0
-27 -52 0
-27 -53 0
-27 -54 0
-27 -55 0
-28 -51 0
-28 -52 0
-28 -53 0
-28 -54 0
-28 -55 0
-29 -51 0
-29 -52 0
-29 -53 0
-29 -54 0
-29 -55 0
-30 -51 0
-30 -52 0
-30 -53 0
-30 -54 0
-30 -55 0
-26 -56 0
-26 -57 0
-26 -58 0
-26 -59 0
-26 -60 0
-27 -56 0
-27 -57 0
-27 -58 0
-27 -59 0
-27 -60 0
-28 -56 0
-28 -57 0
-28 -58 0
-28 -59 0
-28 -60 0
-29 -56 0
-29 -57 0
-29 -58 0
-29 -59 0
-29 -60 0
-30 -56 0
-30 -57 0
-30 -58 0
-30 -59 0
-30 -60 0
-26 -61 0
-26 -62 0
-26 -63 0
-26 -64 0
-26 -65 0
-27 -61 0
-27 -62 0
-27 -63 0
-27 -64 0
-27 -65 0
-28 -61 0
-28 -62 0
-28 -63 0
-28 -64 0
-28 -65 0
-29 -61 0
-29 -62 0
-29 -63 0
-29 -64 0
-29 -65 0
-30 -61 0
-30 -62 0
-30 -63 0
-30 -64 0
-30 -65 0
-31 -41 0
-31 -42 0
-31 -43 0
-31 -44 0
-31 -45 0
-32 -41 0
-32 -42 0
-32 -43 0
-32 -44 0
-32 -45 0
-33 -41 0
-33 -42 0
-33 -43 0
-33 -44 0
-33 -45 0
-34 -41 0
-34 -42 0
-34 -43 0
-34 -44 0
-34 -45 0
-35 -41 0
-35 -42 0
-35 -43 0
-35 -44 0
-35 -45 0
-31 -51 0
-31 -52 0
-31 -53 0
-31 -54 0
-31 -55 0
-32 -51 0
-32 -52 0
-32 -53 0
-32 -54 0
-32 -55 0
-33 -51 0
-33 -52 0
-33 -53 0
-33 -54 0
-33 -55 0
-34 -51 0
-34 -52 0
-34 -53 0
-34 -54 0
-34 -55 0
-35 -51 0
-35 -52 0
-35 -53 0
-35 -54 0
-35 -55 0
-31 -61 0
-31 -62 0
-31 -63 0
-31 -64 0
-31 -65 0
-32 -61 0
-32 -62 0
-32 -63 0
-32 -64 0
-32 -65 0
-33 -61 0
-33 -62 0
-33 -63 0
-33 -64 0
-33 -65 0
-34 -61 0
-34 -62 0
-34 -63 0
-34 -64 0
-34 -65 0
-35 -61 0
-35 -62 0
-35 -63 0
-35 -64 0
-35 -65 0
-36 -41 0
-36 -42 0
-36 -43 0
-36 -44 0
-36 -45 0
-37 -41 0
-37 -42 0
-37 -43 0
-37 -44 0
-37 -45 0
-38 -41 0
-38 -42 0
-38 -43 0
-38 -44 0
-38 -45 0
-39 -41 0
-39 -42 0
-39 -43 0
-39 -44 0
-39 -45 0
-40 -41 0
-40 -42 0
-40 -43 0
-40 -44 0
-40 -45 0
-41 -56 0
-41 -57 0
-41 -58 0
-41 -59 0
-41 -60 0
-42 -56 0
-42 -57 0
-42 -58 0
-42 -59 0
-42 -60 0
-43 -56 0
-43 -57 0
-43 -58 0
-43 -59 0
-43 -60 0
-44 -56 0
-44 -57 0
-44 -58 0
-44 -59 0
-44 -60 0
-45 -56 0
-45 -57 0
-45 -58 0
-45 -59 0
-45 -60 0
-41 -66 0
-41 -67 0
-41 -68 0
-41 -69 0
-41 -70 0
-42 -66 0
-42 -67 0
-42 -68 0
-42 -69 0
-42 -70 0
-43 -66 0
-43 -67 0
-43 -68 0
-43 -69 0
-43 -70 0
-44 -66 0
-44 -67 0
-44 -68 0
-44 -69 0
-44 -70 0
-45 -66 0
-45 -67 0
-45 -68 0
-45 -69 0
-45 -70 0
-46 -61 0
-46 -62 0
-46 -63 0
-46 -64 0
-46 -65 0
-47 -61 0
-47 -62 0
-47 -63 0
-47 -64 0
-47 -65 0
-48 -61 0
-48 -62 0
-48 -63 0
-48 -64 0
-48 -65 0
-49 -61 0
-49 -62 0
-49 -63 0
-49 -64 0
-49 -65 0
-50 -61 0
-50 -62 0
-50 -63 0
-50 -64 0
-50 -65 0
-51 -61 0
-51 -62 0
-51 -63 0
-51 -64 0
-51 -65 0
-52 -61 0
-52 -62 0
-52 -63 0
-52 -64 0
-52 -65 0
-53 -61 0
-53 -62 0
-53 -63 0
-53 -64 0
-53 -65 0
-54 -61 0
-54 -62 0
-54 -63 0
-54 -64 0
-54 -65 0
-55 -61 0
-55 -62 0
-55 -63 0
-55 -64 0
-55 -65 0
-51 -66 0
-51 -67 0
-51 -68 0
-51 -69 0
-51 -70 0
-52 -66 0
-52 -67 0
-52 -68 0
-52 -69 0
-52 -70 0
-53 -66 0
-53 -67 0
-53 -68 0
-53 -69 0
-53 -70 0
-54 -66 0
-54 -67 0
-54 -68 0
-54 -69 0
-54 -70 0
-55 -66 0
-55 -67 0
-55 -68 0
-55 -69 0
-55 -70 0
-56 -61 0
-56 -62 0
-56 -63 0
-56 -64 0
-56 -65 0
-57 -61 0
-57 -62 0
-57 -63 0
-57 -64 0
-57 -65 0
-58 -61 0
-58 -62 0
-58 -63 0
-58 -64 0
-58 -65 0
-59 -61 0
-59 -62 0
-59 -63 0
-59 -64 0
-59 -65 0
-60 -61 0
-60 -62 0
-60 -63 0
-60 -64 0
-60 -65 0
-1 -6 0
-1 -11 0
-1 -16 0
-1 -21 0
-1 -26 0
-1 -31 0
-1 -36 0
-1 -41 0
-1 -46 0
-1 -51 0
-1 -56 0
-1 -61 0
-1 -66 0
-6 -11 0
-6 -16 0
-6 -21 0
-6 -26 0
-6 -31 0
-6 -36 0
-6 -41 0
-6 -46 0
-6 -51 0
-6 -56 0
-6 -61 0
-6 -66 0
-11 -16 0
-11 -21 0
-11 -26 0
-11 -31 0
-11 -36 0
-11 -41 0
-11 -46 0
-11 -51 0
-11 -56 0
-11 -61 0
-11 -66 0
-16 -21 0
-16 -26 0
-16 -31 0
-16 -36 0
-16 -41 0
-16 -46 0
-16 -51 0
-16 -56 0
-16 -61 0
-16 -66 0
-21 -26 0
-21 -31 0
-21 -36 0
-21 -41 0
-21 -46 0
-21 -51 0
-21 -56 0
-21 -61 0
-21 -66 0
-26 -31 0
-26 -36 0
-26 -41 0
-26 -46 0
-26 -51 0
-26 -56 0
-26 -61 0
-26 -66 0
-31 -36 0
-31 -41 0
-31 -46 0
-31 -51 0
-31 -56 0
-31 -61 0
-31 -66 0
-36 -41 0
-36 -46 0
-36 -51 0
-36 -56 0
-36 -61 0
-36 -66 0
-41 -46 0
-41 -51 0
-41 -56 0
-41 -61 0
-41 -66 0
-46 -51 0
-46 -56 0
-46 -61 0
-46 -66 0
-51 -56 0
-51 -61 0
-51 -66 0
-56 -61 0
-56 -66 0
-61 -66 0
1 6 11 16 21 26 31 36 41 46 51 56 61 66 0
-2 -7 0
-2 -12 0
-2 -17 0
-2 -22 0
-2 -27 0
-2 -32 0
-2 -37 0
-2 -42 0
-2 -47 0
-2 -52 0
-2 -57 0
-2 -62 0
-2 -67 0
-7 -12 0
-7 -17 0
-7 -22 0
-7 -27 0
-7 -32 0
-7 -37 0
-7 -42 0
-7 -47 0
-7 -52 0
-7 -57 0
-7 -62 0
-7 -67 0
-12 -17 0
-12 -22 0
-12 -27 0
-12 -32 0
-12 -37 0
-12 -42 0
-12 -47 0
-12 -52 0
-12 -57 0
-12 -62 0
-12 -67 0
-17 -22 0
-17 -27 0
-17 -32 0
-17 -37 0
-17 -42 0
-17 -47 0
-17 -52 0
-17 -57 0
-17 -62 0
-17 -67 0
-22 -27 0
-22 -32 0
-22 -37 0
-22 -42 0
-22 -47 0
-22 -52 0
-22 -57 0
-22 -62 0
-22 -67 0
-27 -32 0
-27 -37 0
-27 -42 0
-27 -47 0
-27 -52 0
-27 -57 0
-27 -62 0
-27 -67 0
-32 -37 0
-32 -42 0
-32 -47 0
-32 -52 0
-32 -57 0
-32 -62 0
-32 -67 0
-37 -42 0
-37 -47 0
-37 -52 0
-37 -57 0
-37 -62 0
-37 -67 0
-42 -47 0
-42 -52 0
-42 -57 0
-42 -62 0
-42 -67 0
-47 -52 0
-47 -57 0
-47 -62 0
-47 -67 0
-52 -57 0
-52 -62 0
-52 -67 0
-57 -62 0
-57 -67 0
-62 -67 0
2 7 12 17 22 27 32 37 42 47 52 57 62 67 0
-3 -8 0
-3 -13 0
-3 -18 0
-3 -23 0
-3 -28 0
-3 -33 0
-3 -38 0
-3 -43 0
-3 -48 0
-3 -53 0
-3 -58 0
-3 -63 0
-3 -68 0
-8 -13 0
-8 -18 0
-8 -23 0
-8 -28 0
-8 -33 0
-8 -38 0
-8 -43 0
-8 -48 0
-8 -53 0
-8 -58 0
-8 -63 0
-8 -68 0
-13 -18 0
-13 -23 0
-13 -28 0
-13 -33 0
-13 -38 0
-13 -43 0
-13 -48 0
-13 -53 0
-13 -58 0
-13 -63 0
-13 -68 0
-18 -23 0
-18 -28 0
-18 -33 0
-18 -38 0
-18 -43 0
-18 -48 0
-18 -53 0
-18 -58 0
-18 -63 0
-18 -68 0
-23 -28 0
-23 -33 0
-23 -38 0
-23 -43 0
-23 -48 0
-23 -53 0
-23 -58 0
-23 -63 0
-23 -68 0
-28 -33 0
-28 -38 0
-28 -43 0
-28 -48 0
-28 -53 0
-28 -58 0
-28 -63 0
-28 -68 0
-33 -38 0
-33 -43 0
-33 -48 0
-33 -53 0
-33 -58 0
-33 -63 0
-33 -68 0
-38 -43 0
-38 -48 0
-38 -53 0
-38 -58 0
-38 -63 0
-38 -68 0
-43 -48 0
-43 -53 0
-43 -58 0
-43 -63 0
-43 -68 0
-48 -53 0
-48 -58 0
-48 -63 0
-48 -68 0
-53 -58 0
-53 -63 0
-53 -68 0
-58 -63 0
-58 -68 0
-63 -68 0
3 8 13 18 23 28 33 38 43 48 53 58 63 68 0
-4 -9 0
-4 -14 0
-4 -19 0
-4 -24 0
-4 -29 0
-4 -34 0
-4 -39 0
-4 -44 0
-4 -49 0
-4 -54 0
-4 -59 0
-4 -64 0
-4 -69 0
-9 -14 0
-9 -19 0
-9 -24 0
-9 -29 0
-9 -34 0
-9 -39 0
-9 -44 0
-9 -49 0
-9 -54 0
-9 -59 0
-9 -64 0
-9 -69 0
-14 -19 0
-14 -24 0
-14 -29 0
-14 -34 0
-14 -39 0
-14 -44 0
-14 -49 0
-14 -54 0
-14 -59 0
-14 -64 0
-14 -69 0
-19 -24 0
-19 -29 0
-19 -34 0
-19 -39 0
-19 -44 0
-19 -49 0
-19 -54 0
-19 -59 0
-19 -64 0
-19 -69 0
-24 -29 0
-24 -34 0
-24 -39 0
-24 -44 0
-24 -49 0
-24 -54 0
-24 -59 0
-24 -64 0
-24 -69 0
-29 -34 0
-29 -39 0
-29 -44 0
-29 -49 0
-29 -54 0
-29 -59 0
-29 -64 0
-29 -69 0
-34 -39 0
-34 -44 0
-34 -49 0
-34 -54 0
-34 -59 0
-34 -64 0
-34 -69 0
-39 -44 0
-39 -49 0
-39 -54 0
-39 -59 0
-39 -64 0
-39 -69 0
-44 -49 0
-44 -54 0
-44 -59 0
-44 -64 0
-44 -69 0
-49 -54 0
-49 -59 0
-49 -64 0
-49 -69 0
-54 -59 0
-54 -64 0
-54 -69 0
-59 -64 0
-59 -69 0
-64 -69 0
4 9 14 19 24 29 34 39 44 49 54 59 64 69 0
-5 -10 0
-5 -15 0
-5 -20 0
-5 -25 0
-5 -30 0
-5 -35 0
-5 -40 0
-5 -45 0
-5 -50 0
-5 -55 0
-5 -60 0
-5 -65 0
-5 -70 0
-10 -15 0
-10 -20 0
-10 -25 0
-10 -30 0
-10 -35 0
-10 -40 0
-10 -45 0
-10 -50 0
-10 -55 0
-10 -60 0
-10 -65 0
-10 -70 0
-15 -20 0
-15 -25 0
-15 -30 0
-15 -35 0
-15 -40 0
-15 -45 0
-15 -50 0
-15 -55 0
-15 -60 0
-15 -65 0
-15 -70 0
-20 -25 0
-20 -30 0
-20 -35 0
-20 -40 0
-20 -45 0
-20 -50 0
-20 -55 0
-20 -60 0
-20 -65 0
-20 -70 0
-25 -30 0
-25 -35 0
-25 -40 0
-25 -45 0
-25 -50 0
-25 -55 0
-25 -60 0
-25 -65 0
-25 -70 0
-30 -35 0
-30 -40 0
-30 -45 0
-30 -50 0
-30 -55 0
-30 -60 0
-30 -65 0
-30 -70 0
-35 -40 0
-35 -45 0
-35 -50 0
-35 -55 0
-35 -60 0
-35 -65 0
-35 -70 0
-40 -45 0
-40 -50 0
-40 -55 0
-40 -60 0
-40 -65 0
-40 -70 0
-45 -50 0
-45 -55 0
-45 -60 0
-45 -65 0
-45 -70 0
-50 -55 0
-50 -60 0
-50 -65 0
-50 -70 0
-55 -60 0
-55 -65 0
-55 -70 0
-60 -65 0
-60 -70 0
-65 -70 0
5 10 15 20 25 30 35 40 45 50 55 60 65 70 0
-1 -2 0
-1 -3 0
-1 -4 0
-1 -5 0
-2 -3 0
-2 -4 0
-2 -5 0
-3 -4 0
-3 -5 0
-4 -5 0
-6 -7 0
-6 -8 0
-6 -9 0
-6 -10 0
-7 -8 0
-7 -9 0
-7 -10 0
-8 -9 0
-8 -10 0
-9 -10 0
-11 -12 0
-11 -13 0
-11 -14 0
-11 -15 0
-12 -13 0
-12 -14 0
-12 -15 0
-13 -14 0
-13 -15 0
-14 -15 0
-16 -17 0
-16 -18 0
-16 -19 0
-16 -20 0
-17 -18 0
-17 -19 0
-17 -20 0
-18 -19 0
-18 -20 0
-19 -20 0
-21 -22 0
-21 -23 0
-21 -24 0
-21 -25 0
-22 -23 0
-22 -24 0
-22 -25 0
-23 -24 0
-23 -25 0
-24 -25 0
-26 -27 0
-26 -28 0
-26 -29 0
-26 -30 0
-27 -28 0
-27 -29 0
-27 -30 0
-28 -29 0
-28 -30 0
-29 -30 0
-31 -32 0
-31 -33 0
-31 -34 0
-31 -35 0
-32 -33 0
-32 -34 0
-32 -35 0
-33 -34 0
-33 -35 0
-34 -35 0
-36 -37 0
-36 -38 0
-36 -39 0
-36 -40 0
-37 -38 0
-37 -39 0
-37 -40 0
-38 -39 0
-38 -40 0
-39 -40 0
-41 -42 0
-41 -43 0
-41 -44 0
-41 -45 0
-42 -43 0
-42 -44 0
-42 -45 0
-43 -44 0
-43 -45 0
-44 -45 0
-46 -47 0
-46 -48 0
-46 -49 0
-46 -50 0
-47 -48 0
-47 -49 0
-47 -50 0
-48 -49 0
-48 -50 0
-49 -50 0
-51 -52 0
-51 -53 0
-51 -54 0
-51 -55 0
-52 -53 0
-52 -54 0
-52 -55 0
-53 -54 0
-53 -55 0
-54 -55 0
-56 -57 0
-56 -58 0
-56 -59 0
-56 -60 0
-57 -58 0
-57 -59 0
-57 -60 0
-58 -59 0
-58 -60 0
-59 -60 0
-61 -62 0
-61 -63 0
-61 -64 0
-61 -65 0
-62 -63 0
-62 -64 0
-62 -65 0
-63 -64 0
-63 -65 0
-64 -65 0
-66 -67 0
-66 -68 0
-66 -69 0
-66 -70 0
-67 -68 0
-67 -69 0
-67 -70 0
-68 -69 0
-68 -70 0
-69 -70 0
